computational_data/solutions/Reg3_n40_s1.sol
Optimal - objective value 18.00000000
      2 r_2                         1                       1
      5 r_5                         1                       1
     12 r_12                        1                       1
     20 r_20                        1                       1
     35 r_35                        1                       1
     36 r_36                        1                       1
     37 r_37                        1                       1
     38 r_38                        1                       1
     41 b_1                         1                       1
     47 b_7                         1                       1
     57 b_17                        1                       1
     61 b_21                        1                       1
     62 b_22                        1                       1
     65 b_25                        1                       1
     70 b_30                        1                       1
     71 b_31                        1                       1
     73 b_33                        1                       1
     79 b_39                        1                       1
